(set-option :print-success false)
(set-logic QF_UF)
(declare-sort x117 0)
(declare-sort x46 0)
(declare-fun x105 () x46)
(declare-fun x152 () x46)
(declare-fun x41 () x46)
(declare-fun x51 () x46)
(declare-fun x146 (x46 x46) x46)
(declare-fun x62 () x46)
(declare-fun x57 (x46 x46) x46)
(assert (not (and (= (x146 x62 x62) x51) (and (= x41 (x146 x62 x152)) (and (and (= (x146 x62 x41) x152) (and (and (= x152 (x146 x152 x62)) (and (and (and (and (and (and (and (= x51 (x146 x105 x105)) (and (= x41 (x146 x105 x41)) (and (and (= (x146 x41 x62) x41) (and (= x62 (x146 x41 x152)) (and (and (= (x146 x41 x41) x105) (and (= (x146 x41 x51) x51) (and (and (and (and (= (x146 x51 x41) x62) (= x152 (x146 x51 x51))) (= x41 (x146 x51 x105))) (= x51 (x146 x51 x152))) (= x105 (x146 x51 x62))))) (= (x146 x41 x105) x152)))) (= (x146 x105 x51) x105)))) (= x152 (x146 x105 x152))) (= (x146 x105 x62) x62)) (= (x146 x152 x51) x41)) (= (x146 x152 x41) x51)) (= (x146 x152 x105) x62)) (= (x146 x152 x152) x105))) (= x62 (x146 x62 x51)))) (= (x146 x62 x105) x105))))))
(assert (and (or (= x62 (x146 x62 (x146 x62 x62))) (or (or (= (x146 x62 (x146 x62 x105)) x105) (or (= x41 (x146 x62 (x146 x62 x41))) (= x51 (x146 x62 (x146 x62 x51))))) (= (x146 x62 (x146 x62 x152)) x152))) (and (and (or (= x62 (x146 x105 (x146 x105 x62))) (or (or (= x105 (x146 x105 (x146 x105 x105))) (or (= x51 (x146 x105 (x146 x105 x51))) (= x41 (x146 x105 (x146 x105 x41))))) (= (x146 x105 (x146 x105 x152)) x152))) (and (or (= x62 (x146 x41 (x146 x41 x62))) (or (or (= (x146 x41 (x146 x41 x105)) x105) (or (= x41 (x146 x41 (x146 x41 x41))) (= (x146 x41 (x146 x41 x51)) x51))) (= (x146 x41 (x146 x41 x152)) x152))) (or (= (x146 x51 (x146 x51 x62)) x62) (or (or (or (= x51 (x146 x51 (x146 x51 x51))) (= x41 (x146 x51 (x146 x51 x41)))) (= x105 (x146 x51 (x146 x51 x105)))) (= (x146 x51 (x146 x51 x152)) x152))))) (or (= x62 (x146 x152 (x146 x152 x62))) (or (or (= (x146 x152 (x146 x152 x105)) x105) (or (= x51 (x146 x152 (x146 x152 x51))) (= x41 (x146 x152 (x146 x152 x41))))) (= x152 (x146 x152 (x146 x152 x152))))))))
(assert (and (and (and (not (= x105 (x146 x105 x105))) (and (not (= (x146 x51 x51) x51)) (not (= x41 (x146 x41 x41))))) (not (= (x146 x152 x152) x152))) (not (= x62 (x146 x62 x62)))))
(assert (let ((x49 (= x62 (x146 (x146 x62 x62) x62))) (x52 (= (x146 (x146 x51 x51) x51) x51)) (x110 (= x152 (x146 (x146 x152 x152) x152))) (x112 (= x105 (x146 (x146 x105 x105) x105))) (x37 (= (x146 (x146 x41 x41) x41) x41))) (and (and (and (or (= x62 (x146 (x146 x152 x62) x152)) (or (or (or (= (x146 (x146 x152 x51) x152) x51) (= (x146 (x146 x152 x41) x152) x41)) (= (x146 (x146 x152 x105) x152) x105)) x110)) (and (or (= x62 (x146 (x146 x105 x62) x105)) (or (= x152 (x146 (x146 x105 x152) x105)) (or (or (= (x146 (x146 x105 x41) x105) x41) (= x51 (x146 (x146 x105 x51) x105))) x112))) (and (or (or (or (or x37 (= x51 (x146 (x146 x41 x51) x41))) (= x105 (x146 (x146 x41 x105) x41))) (= (x146 (x146 x41 x152) x41) x152)) (= (x146 (x146 x41 x62) x41) x62)) (or (= x62 (x146 (x146 x51 x62) x51)) (or (or (= x105 (x146 (x146 x51 x105) x51)) (or (= (x146 (x146 x51 x41) x51) x41) x52)) (= x152 (x146 (x146 x51 x152) x51))))))) (or (or (or (= (x146 (x146 x62 x105) x62) x105) (or (= x41 (x146 (x146 x62 x41) x62)) (= (x146 (x146 x62 x51) x62) x51))) (= (x146 (x146 x62 x152) x62) x152)) x49)) (or (or x110 (or (or x37 x52) x112)) x49))))
(assert (let ((x114 (x146 x105 x41)) (x103 (x146 x152 x105)) (x124 (x146 x41 x105)) (x56 (x146 x152 x41)) (x34 (x146 x152 x62)) (x49 (x146 x51 x62)) (x82 (x146 x41 x62)) (x77 (x146 x105 x105)) (x156 (x146 x62 x51)) (x84 (x146 x105 x51)) (x110 (x146 x51 x152)) (x58 (x146 x105 x152)) (x137 (x146 x152 x152)) (x61 (x146 x62 x41)) (x12 (x146 x152 x51)) (x102 (x146 x62 x152)) (x9 (x146 x105 x62)) (x52 (x146 x51 x51)) (x100 (x146 x41 x51)) (x1 (x146 x41 x152)) (x4 (x146 x62 x105)) (x112 (x146 x51 x105)) (x72 (x146 x41 x41)) (x37 (x146 x51 x41)) (x79 (x146 x62 x62))) (and (and (and (and (and (and (and (and (or (or (or (= x52 x105) (or (= x52 x41) (= x52 x51))) (= x152 x52)) (= x52 x62)) (or (= x37 x62) (or (= x152 x37) (or (= x37 x105) (or (= x37 x51) (= x41 x37)))))) (or (or (or (= x112 x105) (or (= x112 x41) (= x51 x112))) (= x152 x112)) (= x62 x112))) (or (or (or (= x105 x110) (or (= x110 x51) (= x110 x41))) (= x110 x152)) (= x110 x62))) (or (= x49 x62) (or (or (= x105 x49) (or (= x41 x49) (= x51 x49))) (= x49 x152)))) (and (or (= x82 x62) (or (= x152 x82) (or (or (= x82 x41) (= x82 x51)) (= x105 x82)))) (and (and (or (or (= x152 x124) (or (= x105 x124) (or (= x124 x41) (= x51 x124)))) (= x62 x124)) (and (or (= x62 x72) (or (= x152 x72) (or (= x105 x72) (or (= x72 x51) (= x72 x41))))) (or (= x100 x62) (or (= x100 x152) (or (= x100 x105) (or (= x100 x51) (= x41 x100))))))) (or (or (= x152 x1) (or (= x105 x1) (or (= x41 x1) (= x51 x1)))) (= x1 x62))))) (and (or (or (or (= x105 x9) (or (= x51 x9) (= x9 x41))) (= x9 x152)) (= x62 x9)) (and (or (= x58 x62) (or (= x152 x58) (or (= x58 x105) (or (= x41 x58) (= x51 x58))))) (and (or (or (= x152 x77) (or (or (= x77 x41) (= x51 x77)) (= x77 x105))) (= x77 x62)) (and (or (or (or (or (= x114 x41) (= x114 x51)) (= x105 x114)) (= x114 x152)) (= x62 x114)) (or (= x62 x84) (or (or (= x84 x105) (or (= x41 x84) (= x84 x51))) (= x152 x84)))))))) (and (and (and (and (or (or (= x152 x56) (or (= x105 x56) (or (= x56 x51) (= x41 x56)))) (= x56 x62)) (or (or (= x152 x12) (or (= x12 x105) (or (= x12 x51) (= x12 x41)))) (= x62 x12))) (or (= x103 x62) (or (= x103 x152) (or (or (= x103 x41) (= x51 x103)) (= x105 x103))))) (or (= x137 x62) (or (or (or (= x137 x41) (= x137 x51)) (= x105 x137)) (= x137 x152)))) (or (= x34 x62) (or (or (= x105 x34) (or (= x34 x51) (= x41 x34))) (= x152 x34))))) (and (and (and (or (or (or (= x105 x4) (or (= x41 x4) (= x51 x4))) (= x152 x4)) (= x62 x4)) (and (or (or (= x152 x156) (or (= x156 x105) (or (= x156 x51) (= x156 x41)))) (= x62 x156)) (or (or (= x152 x61) (or (or (= x61 x51) (= x41 x61)) (= x105 x61))) (= x62 x61)))) (or (= x102 x62) (or (= x152 x102) (or (= x102 x105) (or (= x41 x102) (= x51 x102)))))) (or (= x79 x62) (or (or (or (= x41 x79) (= x79 x51)) (= x79 x105)) (= x152 x79)))))))
(assert (let ((x12 (not (= x152 (x146 x152 x152)))) (x1 (not (= (x146 x105 x105) x105))) (x77 (x146 x41 x152)) (x52 (not (= x51 (x146 x51 x51)))) (x61 (x146 x105 x62)) (x103 (x146 x51 x62)) (x34 (x146 x41 x62)) (x110 (not (= (x146 x41 x41) x41))) (x100 (x146 x51 x105)) (x137 (x146 x62 x41)) (x49 (x146 x105 x51)) (x58 (x146 x152 x105)) (x102 (x146 x152 x62)) (x4 (x146 x62 x152)) (x72 (x146 x105 x41)) (x37 (x146 x41 x51)) (x84 (x146 x51 x152)) (x79 (not (= (x146 x62 x62) x62))) (x9 (x146 x105 x152)) (x112 (x146 x51 x41)) (x56 (x146 x62 x51)) (x82 (x146 x152 x51)) (x156 (x146 x62 x105)) (x124 (x146 x41 x105)) (x114 (x146 x152 x41))) (and (and (and (and (or (not (= x62 x61)) (not (= x62 x156))) (and (or (not (= x62 x103)) (not (= x56 x62))) (or (not (= x34 x62)) (not (= x62 x137))))) (or (not (= x62 x4)) (not (= x62 x102)))) (or x79 x79)) (and (and (and (and (and (or x1 x1) (and (or (not (= x100 x105)) (not (= x49 x105))) (or (not (= x72 x105)) (not (= x124 x105))))) (or (not (= x105 x9)) (not (= x105 x58)))) (or (not (= x105 x61)) (not (= x156 x105)))) (and (and (or (not (= x41 x137)) (not (= x41 x34))) (and (and (and (or x110 x110) (or (not (= x41 x37)) (not (= x41 x112)))) (or (not (= x124 x41)) (not (= x41 x72)))) (or (not (= x77 x41)) (not (= x41 x114))))) (and (or (not (= x51 x56)) (not (= x51 x103))) (and (or (not (= x51 x82)) (not (= x51 x84))) (and (or (not (= x100 x51)) (not (= x51 x49))) (and (or (not (= x112 x51)) (not (= x37 x51))) (or x52 x52))))))) (and (and (or x12 x12) (and (or (not (= x58 x152)) (not (= x152 x9))) (and (or (not (= x152 x82)) (not (= x152 x84))) (or (not (= x114 x152)) (not (= x77 x152)))))) (or (not (= x152 x4)) (not (= x102 x152))))))))
(assert (and (and (= x152 (x146 x51 x51)) (and (= x41 (x146 x152 x51)) (= x105 (x146 x51 x62)))) (= x62 (x146 x41 x152))))
(assert (let ((x61 (x146 x41 x62)) (x28 (x146 x62 x41)) (x65 (x146 x62 x152)) (x20 (x146 x62 x62)) (x49 (x146 x51 x152)) (x100 (x146 x51 x62)) (x54 (x146 x105 x105)) (x1 (x146 x105 x51)) (x112 (x146 x51 x41)) (x34 (x146 x41 x105)) (x37 (x146 x51 x51)) (x156 (x146 x41 x152)) (x110 (x146 x51 x105)) (x82 (x146 x152 x51)) (x104 (x146 x152 x152)) (x145 (x146 x152 x62)) (x111 (x146 x152 x105)) (x109 (x146 x62 x105)) (x140 (x146 x105 x62)) (x124 (x146 x41 x51)) (x84 (x146 x62 x51)) (x7 (x146 x152 x41)) (x137 (x146 x41 x41)) (x23 (x146 x105 x152)) (x79 (x146 x105 x41))) (let ((x126 (= x152 x137)) (x32 (= x62 x23)) (x47 (= x152 x54)) (x25 (= x62 x112)) (x12 (= x112 x51)) (x155 (= x84 x62)) (x157 (= x61 x105)) (x78 (= x51 x34)) (x69 (= x1 x105)) (x94 (= x7 x51)) (x24 (= x61 x152)) (x14 (= x41 x20)) (x44 (= x51 x145)) (x158 (= x140 x105)) (x8 (= x82 x41)) (x154 (= x152 x34)) (x133 (= x152 x23)) (x75 (= x152 x109)) (x159 (= x62 x104)) (x15 (= x105 x145)) (x40 (= x41 x104)) (x97 (= x41 x54)) (x27 (= x62 x156)) (x85 (= x152 x140)) (x98 (= x34 x41)) (x123 (= x23 x41)) (x149 (= x41 x65)) (x119 (= x41 x61)) (x64 (= x156 x105)) (x102 (= x137 x41)) (x53 (= x49 x51)) (x115 (= x140 x51)) (x38 (= x105 x137)) (x118 (= x156 x152)) (x108 (= x7 x152)) (x80 (= x100 x152)) (x148 (= x79 x62)) (x10 (= x51 x111)) (x135 (= x110 x51)) (x153 (= x41 x109)) (x16 (= x23 x51)) (x26 (= x145 x41)) (x52 (= x51 x37)) (x70 (= x28 x41)) (x107 (= x145 x62)) (x22 (= x100 x41)) (x50 (= x51 x20)) (x88 (= x51 x1)) (x95 (= x152 x79)) (x120 (= x28 x62)) (x59 (= x34 x62)) (x132 (= x41 x140)) (x36 (= x105 x110)) (x90 (= x54 x62)) (x144 (= x105 x111)) (x89 (= x104 x105)) (x60 (= x152 x104)) (x9 (= x124 x51)) (x76 (= x152 x49)) (x48 (= x23 x105)) (x56 (= x137 x51)) (x91 (= x109 x51)) (x73 (= x34 x105)) (x11 (= x84 x41)) (x18 (= x79 x51)) (x55 (= x112 x105)) (x93 (= x51 x104)) (x21 (= x7 x105)) (x114 (= x37 x105)) (x150 (= x61 x62)) (x139 (= x110 x62)) (x136 (= x152 x20)) (x77 (= x152 x37)) (x86 (= x49 x105)) (x74 (= x51 x84)) (x92 (= x82 x152)) (x71 (= x105 x28)) (x113 (= x65 x51)) (x4 (= x41 x112)) (x30 (= x51 x156)) (x81 (= x7 x41)) (x42 (= x152 x111)) (x122 (= x105 x124)) (x121 (= x105 x82)) (x83 (= x28 x152)) (x125 (= x111 x62)) (x58 (= x62 x37)) (x13 (= x51 x28)) (x3 (= x62 x82)) (x63 (= x65 x105)) (x106 (= x62 x140)) (x87 (= x152 x84)) (x66 (= x41 x79)) (x39 (= x105 x100)) (x138 (= x1 x41)) (x35 (= x54 x51)) (x31 (= x100 x62)) (x131 (= x110 x41)) (x68 (= x1 x152)) (x72 (= x41 x37)) (x147 (= x61 x51)) (x101 (= x110 x152)) (x151 (= x62 x124)) (x99 (= x51 x100)) (x67 (= x54 x105)) (x116 (= x62 x7)) (x96 (= x41 x111)) (x33 (= x49 x41)) (x17 (= x65 x152)) (x129 (= x62 x20)) (x134 (= x62 x65)) (x6 (= x20 x105)) (x19 (= x152 x124)) (x43 (= x105 x84)) (x29 (= x105 x109)) (x45 (= x152 x145)) (x103 (= x41 x124)) (x2 (= x79 x105)) (x128 (= x137 x62)) (x142 (= x62 x109)) (x143 (= x1 x62)) (x130 (= x51 x82)) (x5 (= x49 x62)) (x141 (= x156 x41)) (x127 (= x112 x152))) (and (and (and (and (and (and (and (or (or (or x68 (or x19 x77)) x92) x87) (or (or (or x101 (or x127 x77)) x76) x80)) (and (and (or (or x86 (or (or x55 x114) x36)) x39) (or (or x121 (or (or x114 x122) x69)) x43)) (and (and (or x22 (or x33 (or (or x72 x4) x131))) (or (or (or (or x72 x103) x138) x8) x11)) (and (or (or x130 (or x88 (or x9 x52))) x74) (or (or x53 (or (or x12 x52) x135)) x99))))) (and (or (or (or x139 (or x58 x25)) x5) x31) (or (or x3 (or (or x151 x58) x143)) x155))) (and (and (or (or x27 (or x59 (or x128 x151))) x150) (or (or (or (or x25 x128) x148) x116) x120)) (and (and (and (or (or x21 (or (or x38 x55) x2)) x71) (or (or (or (or x38 x122) x73) x64) x157)) (and (and (or (or (or x18 (or x12 x56)) x94) x13) (or (or (or x78 (or x9 x56)) x30) x147)) (and (or x119 (or x141 (or x98 (or x102 x103)))) (or x70 (or (or x66 (or x102 x4)) x81))))) (and (or x24 (or x118 (or (or x19 x126) x154))) (or x83 (or (or (or x126 x127) x95) x108)))))) (and (and (or (or (or x90 (or x59 x139)) x125) x142) (or (or x32 (or (or x148 x143) x90)) x106)) (and (and (and (and (or (or x96 (or (or x131 x98) x97)) x153) (or (or (or x97 (or x138 x66)) x123) x132)) (and (or x91 (or (or (or x135 x78) x35) x10)) (or (or (or (or x18 x88) x35) x16) x115))) (and (or x158 (or (or (or x2 x69) x67) x48)) (or (or x144 (or (or x36 x73) x67)) x29))) (and (or (or (or (or x101 x154) x47) x42) x75) (or (or (or x47 (or x68 x95)) x133) x85))))) (and (and (or (or (or x125 (or x116 x3)) x159) x107) (or x134 (or x159 (or (or x5 x27) x32)))) (and (and (and (or x15 (or x89 (or x144 (or x21 x121)))) (or (or (or x48 (or x86 x64)) x89) x63)) (and (and (or x26 (or x40 (or (or x8 x81) x96))) (or (or x40 (or x123 (or x141 x33))) x149)) (and (or x44 (or x93 (or x10 (or x130 x94)))) (or x113 (or (or x16 (or x53 x30)) x93))))) (and (or (or (or x42 (or x108 x92)) x60) x45) (or x17 (or x60 (or x133 (or x76 x118)))))))) (and (and (or x129 (or (or (or x150 x31) x106) x107)) (or x129 (or x134 (or (or x155 x120) x142)))) (and (and (or (or (or (or x87 x83) x75) x17) x136) (or x136 (or x45 (or (or x80 x24) x85)))) (and (and (or x6 (or (or (or x157 x39) x158) x15)) (or (or (or (or x71 x43) x29) x63) x6)) (and (and (or x50 (or (or (or x99 x147) x115) x44)) (or x50 (or (or x91 (or x13 x74)) x113))) (and (or (or (or (or x119 x22) x132) x26) x14) (or (or x149 (or x153 (or x11 x70))) x14))))))))))
(assert (let ((x18 (x146 x41 x41)) (x66 (x146 x152 x41)) (x2 (x146 x152 x105)) (x122 (x146 x51 x41)) (x7 (x146 x51 x51)) (x59 (x146 x62 x152)) (x19 (x146 x105 x51)) (x138 (x146 x41 x152)) (x69 (x146 x105 x152)) (x25 (x146 x62 x51)) (x36 (x146 x105 x62)) (x54 (x146 x41 x62)) (x73 (x146 x62 x105)) (x111 (x146 x105 x105)) (x8 (x146 x62 x62)) (x139 (x146 x152 x62)) (x38 (x146 x51 x105)) (x78 (x146 x41 x105)) (x143 (x146 x152 x152)) (x35 (x146 x105 x41)) (x127 (x146 x51 x152)) (x55 (x146 x41 x51)) (x23 (x146 x62 x41)) (x151 (x146 x51 x62)) (x126 (x146 x152 x51))) (let ((x49 (not (= x51 x19))) (x77 (not (= x51 x138))) (x155 (not (= x25 x62))) (x97 (not (= x41 x78))) (x128 (not (= x55 x41))) (x133 (not (= x105 x73))) (x37 (not (= x55 x51))) (x4 (not (= x51 x59))) (x58 (not (= x2 x51))) (x115 (not (= x127 x152))) (x135 (not (= x18 x41))) (x125 (not (= x105 x8))) (x132 (not (= x73 x152))) (x130 (not (= x41 x151))) (x156 (not (= x73 x51))) (x47 (not (= x69 x41))) (x67 (not (= x41 x126))) (x61 (not (= x36 x51))) (x65 (not (= x78 x105))) (x28 (not (= x41 x7))) (x42 (not (= x105 x151))) (x48 (not (= x105 x2))) (x13 (not (= x38 x152))) (x159 (not (= x18 x152))) (x106 (not (= x59 x62))) (x114 (not (= x66 x51))) (x148 (not (= x41 x143))) (x141 (not (= x19 x105))) (x121 (not (= x111 x105))) (x11 (not (= x2 x152))) (x29 (not (= x7 x62))) (x124 (not (= x78 x51))) (x52 (not (= x7 x51))) (x56 (not (= x51 x25))) (x86 (not (= x66 x105))) (x118 (not (= x105 x54))) (x60 (not (= x105 x36))) (x154 (not (= x41 x2))) (x96 (not (= x7 x105))) (x157 (not (= x18 x62))) (x104 (not (= x55 x105))) (x5 (not (= x7 x152))) (x84 (not (= x51 x127))) (x144 (not (= x127 x105))) (x22 (not (= x152 x23))) (x75 (not (= x126 x62))) (x1 (not (= x111 x51))) (x119 (not (= x152 x54))) (x94 (not (= x23 x41))) (x81 (not (= x8 x41))) (x145 (not (= x105 x122))) (x43 (not (= x139 x152))) (x120 (not (= x151 x62))) (x113 (not (= x78 x152))) (x79 (not (= x51 x8))) (x116 (not (= x139 x105))) (x15 (not (= x38 x62))) (x92 (not (= x105 x143))) (x95 (not (= x66 x41))) (x40 (not (= x105 x35))) (x90 (not (= x41 x25))) (x101 (not (= x41 x138))) (x91 (not (= x152 x35))) (x63 (not (= x62 x55))) (x108 (not (= x105 x25))) (x98 (not (= x35 x41))) (x137 (not (= x51 x23))) (x17 (not (= x127 x62))) (x12 (not (= x51 x143))) (x33 (not (= x105 x18))) (x134 (not (= x62 x54))) (x99 (not (= x152 x111))) (x87 (not (= x62 x78))) (x6 (not (= x35 x62))) (x80 (not (= x66 x62))) (x129 (not (= x62 x8))) (x39 (not (= x62 x122))) (x71 (not (= x152 x8))) (x100 (not (= x38 x51))) (x14 (not (= x152 x59))) (x147 (not (= x126 x152))) (x70 (not (= x152 x69))) (x142 (not (= x23 x62))) (x3 (not (= x59 x105))) (x158 (not (= x62 x19))) (x149 (not (= x25 x152))) (x30 (not (= x41 x36))) (x50 (not (= x138 x152))) (x150 (not (= x36 x62))) (x109 (not (= x41 x111))) (x32 (not (= x152 x122))) (x10 (not (= x41 x54))) (x103 (not (= x51 x151))) (x123 (not (= x38 x105))) (x76 (not (= x105 x23))) (x131 (not (= x38 x41))) (x68 (not (= x127 x41))) (x153 (not (= x143 x152))) (x31 (not (= x62 x73))) (x9 (not (= x69 x51))) (x16 (not (= x59 x41))) (x89 (not (= x105 x69))) (x140 (not (= x19 x41))) (x21 (not (= x105 x126))) (x85 (not (= x2 x62))) (x20 (not (= x151 x152))) (x82 (not (= x51 x126))) (x102 (not (= x51 x139))) (x44 (not (= x152 x66))) (x83 (not (= x62 x111))) (x53 (not (= x41 x73))) (x24 (not (= x138 x62))) (x34 (not (= x51 x54))) (x88 (not (= x41 x122))) (x64 (not (= x138 x105))) (x112 (not (= x51 x122))) (x26 (not (= x36 x152))) (x93 (not (= x41 x139))) (x72 (not (= x51 x35))) (x110 (not (= x51 x18))) (x136 (not (= x62 x143))) (x107 (not (= x139 x62))) (x74 (not (= x152 x19))) (x45 (not (= x69 x62))) (x27 (not (= x152 x55)))) (or (and (and (and (or x106 x107) (and (or x31 x150) (and (or x155 x120) (or x134 x142)))) (or x129 x129)) (and (and (and (and (or x45 x85) (and (and (or x158 x15) (or x6 x87)) (or x83 x83))) (or x31 x150)) (and (and (or x155 x120) (and (and (and (or x29 x29) (or x39 x63)) (or x158 x15)) (or x75 x17))) (and (or x134 x142) (and (or x24 x80) (and (and (or x63 x39) (or x157 x157)) (or x87 x6)))))) (and (or x106 x107) (and (or x136 x136) (and (and (or x24 x80) (or x17 x75)) (or x85 x45)))))) (or (or (or (and (and (and (or x102 x4) (and (and (or x58 x9) (and (or x114 x77) (or x84 x82))) (or x12 x12))) (and (and (and (or x103 x56) (and (and (and (or x52 x52) (or x37 x112)) (or x49 x100)) (or x82 x84))) (and (and (and (or x72 x124) (and (or x110 x110) (or x112 x37))) (or x77 x114)) (or x137 x34))) (and (and (or x58 x9) (and (and (or x72 x124) (or x49 x100)) (or x1 x1))) (or x61 x156)))) (and (or x79 x79) (and (and (or x61 x156) (and (or x56 x103) (or x137 x34))) (or x102 x4)))) (and (and (and (and (and (and (or x67 x68) (and (and (or x28 x28) (or x128 x88)) (or x131 x140))) (or x130 x90)) (and (and (and (and (or x135 x135) (or x88 x128)) (or x98 x97)) (or x101 x95)) (or x94 x10))) (and (or x53 x30) (and (and (or x109 x109) (and (or x140 x131) (or x98 x97))) (or x154 x47)))) (and (or x93 x16) (and (and (or x154 x47) (and (or x101 x95) (or x67 x68))) (or x148 x148)))) (and (or x81 x81) (and (and (or x53 x30) (and (or x94 x10) (or x90 x130))) (or x93 x16))))) (and (and (and (or x3 x116) (and (or x60 x133) (and (or x42 x108) (or x76 x118)))) (or x125 x125)) (and (and (and (or x60 x133) (and (and (and (or x65 x40) (or x141 x123)) (or x121 x121)) (or x89 x48))) (and (and (or x108 x42) (and (and (or x123 x141) (and (or x104 x145) (or x96 x96))) (or x144 x21))) (and (or x118 x76) (and (or x64 x86) (and (and (or x33 x33) (or x104 x145)) (or x65 x40)))))) (and (or x3 x116) (and (and (and (or x144 x21) (or x64 x86)) (or x48 x89)) (or x92 x92)))))) (and (and (and (or x14 x43) (and (or x153 x153) (and (or x70 x11) (and (or x50 x44) (or x115 x147))))) (and (and (and (and (or x44 x50) (and (and (or x27 x32) (or x159 x159)) (or x113 x91))) (or x119 x22)) (and (and (or x147 x115) (and (and (or x32 x27) (or x5 x5)) (or x74 x13))) (or x149 x20))) (and (or x132 x26) (and (or x11 x70) (and (or x99 x99) (and (or x13 x74) (or x91 x113))))))) (and (and (and (or x26 x132) (and (or x119 x22) (or x20 x149))) (or x43 x14)) (or x71 x71))))))))
(assert (or (and (not (= x62 (x146 (x146 x62 x62) x62))) (and (not (= x152 (x146 (x146 x152 x62) x62))) (and (not (= (x146 (x146 x105 x62) x62) x105)) (and (not (= (x146 (x146 x41 x62) x62) x41)) (not (= (x146 (x146 x51 x62) x62) x51)))))) (or (or (and (and (not (= (x146 (x146 x152 x105) x105) x152)) (and (and (not (= x51 (x146 (x146 x51 x105) x105))) (not (= (x146 (x146 x41 x105) x105) x41))) (not (= x105 (x146 (x146 x105 x105) x105))))) (not (= (x146 (x146 x62 x105) x105) x62))) (or (and (not (= (x146 (x146 x62 x41) x41) x62)) (and (and (not (= x105 (x146 (x146 x105 x41) x41))) (and (not (= (x146 (x146 x41 x41) x41) x41)) (not (= (x146 (x146 x51 x41) x41) x51)))) (not (= x152 (x146 (x146 x152 x41) x41))))) (and (not (= (x146 (x146 x62 x51) x51) x62)) (and (and (and (not (= x51 (x146 (x146 x51 x51) x51))) (not (= x41 (x146 (x146 x41 x51) x51)))) (not (= x105 (x146 (x146 x105 x51) x51)))) (not (= x152 (x146 (x146 x152 x51) x51))))))) (and (not (= (x146 (x146 x62 x152) x152) x62)) (and (and (and (not (= (x146 (x146 x51 x152) x152) x51)) (not (= x41 (x146 (x146 x41 x152) x152)))) (not (= (x146 (x146 x105 x152) x152) x105))) (not (= x152 (x146 (x146 x152 x152) x152))))))))
(assert (let ((x12 (x146 x51 x152)) (x37 (x146 x51 x51)) (x34 (x146 x41 x41)) (x54 (x146 x62 x152)) (x151 (x146 x152 x41)) (x77 (x146 x51 x41)) (x55 (x146 x105 x105)) (x100 (x146 x105 x51)) (x88 (x146 x152 x152)) (x9 (x146 x51 x105)) (x38 (x146 x105 x152)) (x4 (x146 x41 x152)) (x82 (x146 x62 x51)) (x56 (x146 x51 x62)) (x19 (x146 x105 x62)) (x28 (x146 x105 x41)) (x124 (x146 x152 x51)) (x61 (x146 x41 x105)) (x66 (x146 x62 x105)) (x110 (x146 x41 x51)) (x23 (x146 x62 x62)) (x128 (x146 x152 x105)) (x18 (x146 x152 x62)) (x102 (x146 x41 x62)) (x35 (x146 x62 x41))) (let ((x73 (= x61 x105)) (x70 (= x62 x110)) (x154 (= x55 x105)) (x32 (= x66 x152)) (x29 (= x28 x62)) (x113 (= x77 x62)) (x85 (= x62 x88)) (x21 (= x152 x100)) (x60 (= x88 x105)) (x83 (= x51 x18)) (x109 (= x105 x110)) (x20 (= x102 x41)) (x125 (= x51 x54)) (x2 (= x34 x105)) (x1 (= x51 x82)) (x121 (= x4 x152)) (x130 (= x51 x66)) (x63 (= x41 x19)) (x145 (= x110 x152)) (x131 (= x51 x9)) (x144 (= x51 x38)) (x75 (= x151 x62)) (x119 (= x102 x105)) (x58 (= x77 x41)) (x14 (= x62 x102)) (x50 (= x152 x56)) (x156 (= x34 x41)) (x24 (= x105 x18)) (x129 (= x62 x23)) (x147 (= x62 x9)) (x78 (= x35 x51)) (x79 (= x100 x41)) (x69 (= x61 x51)) (x36 (= x61 x41)) (x22 (= x61 x62)) (x90 (= x105 x82)) (x142 (= x35 x62)) (x91 (= x51 x56)) (x64 (= x38 x41)) (x126 (= x51 x151)) (x44 (= x62 x12)) (x96 (= x105 x12)) (x120 (= x23 x51)) (x115 (= x56 x105)) (x136 (= x18 x62)) (x16 (= x12 x51)) (x42 (= x51 x88)) (x97 (= x41 x9)) (x116 (= x152 x82)) (x89 (= x38 x105)) (x132 (= x62 x4)) (x81 (= x9 x152)) (x80 (= x62 x128)) (x98 (= x77 x105)) (x68 (= x55 x51)) (x33 (= x4 x51)) (x13 (= x37 x62)) (x65 (= x4 x105)) (x111 (= x105 x9)) (x92 (= x152 x38)) (x112 (= x110 x51)) (x17 (= x18 x41)) (x107 (= x23 x152)) (x8 (= x41 x12)) (x139 (= x41 x128)) (x48 (= x55 x152)) (x133 (= x128 x152)) (x10 (= x41 x66)) (x141 (= x152 x34)) (x53 (= x105 x66)) (x87 (= x124 x62)) (x94 (= x35 x105)) (x106 (= x54 x62)) (x49 (= x51 x100)) (x5 (= x152 x35)) (x138 (= x41 x35)) (x72 (= x51 x124)) (x95 (= x28 x105)) (x127 (= x124 x41)) (x99 (= x41 x56)) (x157 (= x105 x19)) (x74 (= x152 x54)) (x7 (= x28 x51)) (x158 (= x38 x62)) (x122 (= x28 x41)) (x31 (= x66 x62)) (x123 (= x41 x4)) (x76 (= x152 x151)) (x155 (= x62 x82)) (x71 (= x19 x51)) (x3 (= x152 x88)) (x137 (= x34 x51)) (x150 (= x23 x105)) (x67 (= x105 x100)) (x86 (= x152 x28)) (x11 (= x62 x56)) (x52 (= x51 x37)) (x45 (= x18 x152)) (x27 (= x54 x41)) (x134 (= x23 x41)) (x6 (= x62 x19)) (x39 (= x62 x55)) (x93 (= x77 x152)) (x40 (= x61 x152)) (x104 (= x12 x152)) (x101 (= x41 x55)) (x43 (= x62 x100)) (x15 (= x152 x19)) (x30 (= x152 x37)) (x84 (= x41 x37)) (x135 (= x41 x82)) (x25 (= x41 x151)) (x26 (= x102 x152)) (x140 (= x37 x105)) (x148 (= x105 x151)) (x47 (= x124 x105)) (x159 (= x105 x54)) (x118 (= x41 x88)) (x103 (= x41 x110)) (x143 (= x128 x51)) (x59 (= x128 x105)) (x153 (= x51 x102)) (x149 (= x62 x34)) (x114 (= x77 x51)) (x108 (= x152 x124))) (or (and (and (and (and (or (not x6) x6) (and (or (not x158) x15) (and (and (or x63 (not x29)) (or (not x43) x71)) (or (not x39) x157)))) (and (and (or (not x11) x11) (and (and (and (or (not x13) x91) (or x99 (not x113))) (or x115 (not x147))) (or (not x44) x50))) (and (and (and (and (or (not x70) x153) (or (not x149) x20)) (or (not x22) x119)) (or x26 (not x132))) (or x14 (not x14))))) (and (and (or x45 (not x85)) (and (or (not x80) x24) (and (or x83 (not x87)) (or (not x75) x17)))) (or (not x136) x136))) (and (or x129 (not x129)) (and (or (not x106) x107) (and (or (not x31) x150) (and (or (not x155) x120) (or (not x142) x134)))))) (or (or (and (and (and (and (and (and (or x143 (not x47)) (or (not x148) x139)) (or x59 (not x59))) (or (not x60) x133)) (or (not x24) x80)) (and (and (and (and (and (or x73 (not x73)) (and (or (not x2) x36) (or x69 (not x109)))) (or (not x65) x40)) (or (not x119) x22)) (and (and (and (or (not x111) x111) (and (or x131 (not x140)) (or x97 (not x98)))) (or x81 (not x96))) (or x147 (not x115)))) (and (and (or x48 (not x89)) (and (or (not x154) x154) (and (or (not x67) x68) (or (not x95) x101)))) (or (not x157) x39)))) (and (or x31 (not x150)) (and (or x32 (not x159)) (and (and (or (not x94) x10) (or (not x90) x130)) (or x53 (not x53)))))) (or (and (and (or (not x120) x155) (and (or x116 (not x125)) (and (and (or x135 (not x78)) (or x1 (not x1))) (or x90 (not x130))))) (and (and (and (and (and (or (not x68) x67) (and (or (not x7) x79) (or x49 (not x49)))) (or (not x144) x21)) (or (not x71) x43)) (and (and (and (or x145 (not x33)) (and (or x109 (not x69)) (and (or (not x112) x112) (or (not x137) x103)))) (or (not x153) x70)) (and (or x13 (not x91)) (and (and (or (not x131) x140) (and (or (not x52) x52) (or (not x114) x84))) (or x30 (not x16)))))) (and (and (or x108 (not x42)) (and (and (or x127 (not x126)) (or x72 (not x72))) (or x47 (not x143)))) (or x87 (not x83))))) (and (and (and (or x5 (not x27)) (and (and (or (not x135) x78) (or x138 (not x138))) (or (not x10) x94))) (or (not x134) x142)) (and (and (and (or x29 (not x63)) (and (or (not x64) x86) (and (or (not x101) x95) (and (or (not x79) x7) (or x122 (not x122)))))) (and (and (or (not x99) x113) (and (and (and (or x114 (not x84)) (or x58 (not x58))) (or (not x97) x98)) (or (not x8) x93))) (and (or x149 (not x20)) (and (or x141 (not x123)) (and (or (not x36) x2) (and (or (not x156) x156) (or x137 (not x103)))))))) (and (and (and (and (or x126 (not x127)) (or (not x25) x25)) (or (not x139) x148)) (or x76 (not x118))) (or x75 (not x17))))))) (and (and (and (and (and (or x125 (not x116)) (or x27 (not x5))) (or x159 (not x32))) (or x74 (not x74))) (or (not x107) x106)) (and (and (and (and (and (and (or x96 (not x81)) (and (or x16 (not x30)) (or (not x93) x8))) (or (not x104) x104)) (or (not x50) x44)) (and (or x132 (not x26)) (and (and (and (or x123 (not x141)) (or x33 (not x145))) (or x65 (not x40))) (or (not x121) x121)))) (and (and (and (or x89 (not x48)) (and (or x64 (not x86)) (or x144 (not x21)))) (or x92 (not x92))) (or x158 (not x15)))) (and (or x85 (not x45)) (and (and (or (not x133) x60) (and (or (not x76) x118) (or (not x108) x42))) (or x3 (not x3)))))))))))
(assert (and (not (= x62 x152)) (and (and (and (and (and (not (= x41 x105)) (and (and (and (not (= x51 x105)) (not (= x51 x41))) (not (= x51 x152))) (not (= x62 x51)))) (not (= x41 x152))) (not (= x62 x41))) (not (= x105 x152))) (not (= x62 x105)))))
(assert (let ((x110 (x146 x152 x152)) (x49 (x146 x62 x62)) (x112 (x146 x105 x105)) (x37 (x146 x41 x41)) (x52 (x146 x51 x51))) (or (and (not (= x62 x49)) (and (not (= x110 x62)) (and (and (not (= x52 x62)) (not (= x62 x37))) (not (= x62 x112))))) (or (or (and (not (= x105 x49)) (and (and (and (not (= x105 x52)) (not (= x37 x105))) (not (= x105 x112))) (not (= x105 x110)))) (or (and (not (= x49 x41)) (and (and (not (= x112 x41)) (and (not (= x37 x41)) (not (= x41 x52)))) (not (= x110 x41)))) (and (and (and (not (= x51 x112)) (and (not (= x51 x52)) (not (= x37 x51)))) (not (= x110 x51))) (not (= x51 x49))))) (and (not (= x152 x49)) (and (not (= x110 x152)) (and (not (= x152 x112)) (and (not (= x52 x152)) (not (= x152 x37))))))))))
(assert (let ((x103 (x146 x105 x152)) (x82 (x146 x62 x41)) (x9 (x146 x62 x105)) (x52 (x146 x51 x51)) (x34 (x146 x62 x152)) (x156 (x146 x51 x62)) (x61 (x146 x41 x62)) (x12 (x146 x51 x152)) (x58 (x146 x152 x105)) (x37 (x146 x41 x51)) (x112 (x146 x105 x51)) (x72 (x146 x41 x41)) (x56 (x146 x41 x152)) (x114 (x146 x41 x105)) (x77 (x146 x105 x105)) (x49 (x146 x62 x51)) (x84 (x146 x51 x105)) (x137 (x146 x152 x152)) (x1 (x146 x152 x41)) (x124 (x146 x105 x41)) (x110 (x146 x152 x51)) (x102 (x146 x152 x62)) (x4 (x146 x105 x62)) (x79 (x146 x62 x62)) (x100 (x146 x51 x41))) (and (and (and (not (= x102 x79)) (and (and (and (not (= x61 x79)) (and (not (= x61 x102)) (and (and (not (= x79 x156)) (and (and (not (= x156 x4)) (not (= x61 x156))) (not (= x102 x156)))) (not (= x61 x4))))) (not (= x102 x4))) (not (= x79 x4)))) (and (and (and (not (= x58 x9)) (and (not (= x9 x77)) (and (and (and (not (= x114 x58)) (and (and (and (not (= x84 x58)) (and (not (= x77 x84)) (not (= x84 x114)))) (not (= x9 x84))) (not (= x114 x77)))) (not (= x114 x9))) (not (= x58 x77))))) (and (and (not (= x110 x49)) (and (and (and (not (= x37 x49)) (and (and (and (and (and (not (= x52 x37)) (not (= x112 x52))) (not (= x110 x52))) (not (= x52 x49))) (not (= x112 x37))) (not (= x110 x37)))) (not (= x110 x112))) (not (= x112 x49)))) (and (and (not (= x82 x124)) (and (not (= x1 x124)) (and (and (and (not (= x124 x72)) (and (not (= x100 x82)) (and (and (not (= x124 x100)) (not (= x100 x72))) (not (= x1 x100))))) (not (= x72 x1))) (not (= x82 x72))))) (not (= x1 x82))))) (and (and (and (and (and (not (= x56 x137)) (and (not (= x56 x103)) (and (and (not (= x12 x137)) (and (not (= x103 x12)) (not (= x56 x12)))) (not (= x12 x34))))) (not (= x56 x34))) (not (= x137 x103))) (not (= x34 x103))) (not (= x137 x34))))) (and (and (and (and (and (not (= x156 x12)) (and (not (= x156 x84)) (and (and (and (and (and (not (= x156 x52)) (and (and (not (= x52 x100)) (not (= x52 x84))) (not (= x12 x52)))) (not (= x100 x84))) (not (= x100 x12))) (not (= x156 x100))) (not (= x84 x12))))) (and (and (not (= x61 x114)) (and (and (and (not (= x56 x72)) (and (and (not (= x61 x37)) (and (and (not (= x72 x37)) (not (= x37 x114))) (not (= x37 x56)))) (not (= x72 x114)))) (not (= x61 x72))) (not (= x56 x114)))) (not (= x61 x56)))) (and (not (= x103 x4)) (and (and (and (not (= x4 x124)) (and (not (= x103 x124)) (and (not (= x77 x124)) (and (and (not (= x103 x112)) (and (not (= x77 x112)) (not (= x112 x124)))) (not (= x112 x4)))))) (not (= x77 x103))) (not (= x77 x4))))) (and (and (and (not (= x137 x58)) (and (not (= x1 x102)) (and (not (= x137 x1)) (and (not (= x1 x58)) (and (not (= x102 x110)) (and (not (= x137 x110)) (and (not (= x58 x110)) (not (= x110 x1))))))))) (not (= x102 x58))) (not (= x137 x102)))) (and (and (not (= x79 x9)) (and (and (not (= x79 x82)) (and (not (= x82 x34)) (and (and (and (and (not (= x9 x49)) (not (= x82 x49))) (not (= x49 x34))) (not (= x79 x49))) (not (= x82 x9))))) (not (= x34 x9)))) (not (= x34 x79)))))))
(check-sat)
(exit)
